82 102 146 76 90 52 123 63 
116 78 196 112 167 165 108 
159 104 40 2 139 67 111 
21 197 25 94 15 
178 65 191 16 138 99 
73 44 193 6 100 87 28 
32 156 97 168 79 179 162 
164 166 8 186 42 109 
114 88 184 185 189 
144 10 86 200 17 39 107 
148 147 160 13 43 181 117 198 
161 182 153 169 95 
170 85 152 69 121 49 
133 175 124 194 81 
113 62 192 176 36 77 74 
171 103 11 141 145 105 
45 26 115 91 96 142 
177 180 84 132 140 157 158 
120 38 46 51 34 56 
20 66 129 35 125 4 92 
55 27 128 195 130 53 
60 57 22 68 72 
48 50 58 151 98 188 
101 134 126 199 7 
155 12 143 37 29 
119 173 163 89 64 183 
41 19 154 33 71 
23 54 122 70 136 59 
190 5 47 127 110 
131 3 150 24 9 
118 83 75 106 1 
30 93 80 31 172 61 187 137 149 
135 18 14 174 

